Linux optc-04-12 4.15.0-88-generic #88-Ubuntu SMP Tue Feb 11 20:11:34 UTC 2020 x86_64 x86_64 x86_64 GNU/Linux

top - 04:27:43 up 2 days, 15:03,  0 users,  load average: 0,65, 0,85, 0,95
Tasks: 466 gesamt,   1 laufend, 235 schlafend,   0 gestoppt,   0 Zombie
%CPU(s): 17,7 be,  4,7 sy,  0,0 ni, 77,6 un,  0,0 wa,  0,0 hi,  0,0 si,  0,0 st
KiB Spch : 65916192 gesamt, 64023360 frei,   608032 belegt,  1284800 Puff/Cache
KiB Swap:  8388604 gesamt,  8242172 frei,   146432 belegt. 64737328 verfü Spch 

  PID USER      PR  NI    VIRT    RES    SHR S  %CPU %MEM     ZEIT+ BEFEHL
27076 bzfhende  20   0   52808   4412   3488 R  11,5  0,0   0:00.04 top
    1 root      20   0  233668   6092   4296 S   0,0  0,0   0:17.10 systemd
    2 root      20   0       0      0      0 S   0,0  0,0   0:00.26 kthreadd
    4 root       0 -20       0      0      0 I   0,0  0,0   0:00.00 kworker/0:+
    5 root      20   0       0      0      0 I   0,0  0,0   0:28.03 kworker/u9+
    7 root       0 -20       0      0      0 I   0,0  0,0   0:00.00 mm_percpu_+
    8 root      20   0       0      0      0 S   0,0  0,0   0:00.29 ksoftirqd/0
    9 root      20   0       0      0      0 I   0,0  0,0   0:46.57 rcu_sched

hard time limit: 00-04:10:00
hard mem limit: 38600

SLURM jobID: 6405072

@01 /nfs/OPTI/bzfhende/instances//./miplib2010_opm2/instances/opm2-z10-s4.mps.gz ===========
-----------------------------
So 8. Mär 04:27:43 CET 2020
-----------------------------
@03 1583638063
@05 7200
SCIP version 7.0.0 [precision: 8 byte] [memory: block] [mode: optimized] [LP solver: CPLEX 12.10.0.0] [GitHash: 297532de76]
Copyright (C) 2002-2020 Konrad-Zuse-Zentrum fuer Informationstechnik Berlin (ZIB)

External codes: 
  Readline 7.0         GNU library for command line editing (gnu.org/s/readline)
  CPLEX 12.10.0.0      Linear Programming Solver developed by IBM (www.cplex.com)
  CppAD 20180000.0     Algorithmic Differentiation of C++ algorithms developed by B. Bell (www.coin-or.org/CppAD)
  ZLIB 1.2.11          General purpose compression library by J. Gailly and M. Adler (zlib.net)
  GMP 6.1.2            GNU Multiple Precision Arithmetic Library developed by T. Granlund (gmplib.org)
  bliss 0.73p          Computing Graph Automorphism Groups by T. Junttila and P. Kaski (http://www.tcs.hut.fi/Software/bliss/)

user parameter file <scip.set> not found - using default parameters

SCIP> 
SCIP> set load /nfs/OPTI/bzfhende/scip-opti/check/../settings/periodic_report.sett
loaded parameter file </nfs/OPTI/bzfhende/scip-opti/check/../settings/periodic_report.set>
SCIP> set limits time 7200
limits/time = 7200
SCIP> set limits nodes 2100000000
limits/nodes = 2100000000
SCIP> set limits memory 35000
limits/memory = 35000
SCIP> set lp advanced threads 1
lp/threads = 1
SCIP> set timing clocktype 1
timing/clocktype = 1
SCIP> set display freq 10000
display/freq = 10000
SCIP> set memory savefac 1.0
memory/savefac = 1
SCIP> set save /nfs/OPTI/bzfhende/scip-opti/check/treesize.prediction.opm2/bzfhennde.instancegroups_opm2.53_opm2-z10-s4.scip.M620v2.periodic_report.set
saved parameter file </nfs/OPTI/bzfhende/scip-opti/check/treesize.prediction.opm2/bzfhende.instancegroups_opm2.53_opm2-z10-s4.scip.M620v2.periodic_report.set>
SCIP> read /nfs/OPTI/bzfhende/instances//./miplib2010_opm2/instances/opm2-z10-s4..mps.gz

read problem </nfs/OPTI/bzfhende/instances//./miplib2010_opm2/instances/opm2-z10-s4.mps.gz>
============

original problem has 6250 variables (6250 bin, 0 int, 0 impl, 0 cont) and 160633 constraints
SCIP> display parameters

number of parameters = 2603
non-default parameter settings:
display/freq = 10000
limits/time = 7200
limits/nodes = 2100000000
limits/memory = 35000
lp/threads = 1
memory/savefac = 1
timing/clocktype = 1
estimation/restarts/restartpolicy = n
estimation/restarts/restartlimit = 0
estimation/reportfreq = 100
estimation/treeprofile/enabled = TRUE

SCIP> optimize

feasible solution found by trivial heuristic after 0.2 seconds, objective value 0.000000e+00
presolving:
(round 1, fast)       289 del vars, 14017 del conss, 0 add conss, 0 chg bounds, 0 chg sides, 0 chg coeffs, 0 upgd conss, 0 impls, 146596 clqs
(round 2, fast)       296 del vars, 14408 del conss, 0 add conss, 0 chg bounds, 0 chg sides, 0 chg coeffs, 0 upgd conss, 0 impls, 146209 clqs
(round 3, exhaustive) 296 del vars, 14416 del conss, 0 add conss, 0 chg bounds, 0 chg sides, 0 chg coeffs, 146217 upgd conss, 0 impls, 146209 clqs
(round 4, fast)       310 del vars, 14741 del conss, 0 add conss, 0 chg bounds, 0 chg sides, 0 chg coeffs, 146217 upgd conss, 0 impls, 145523 clqs
(round 5, fast)       312 del vars, 15150 del conss, 0 add conss, 0 chg bounds, 0 chg sides, 0 chg coeffs, 146217 upgd conss, 0 impls, 145425 clqs
   (22.1s) probing: 1000/5938 (16.8%) - 0 fixings, 0 aggregations, 209634 implications, 0 bound changes
   (22.2s) probing: 1001/5938 (16.9%) - 0 fixings, 0 aggregations, 209863 implications, 0 bound changes
   (22.2s) probing aborted: 1000/1000 successive useless probings
   (24.3s) symmetry computation started: requiring (bin +, int +, cont +), (fixed: bin -, int -, cont -)
   (24.4s) no symmetry present
presolving (6 rounds: 6 fast, 2 medium, 2 exhaustive):
 312 deleted vars, 15200 deleted constraints, 0 added constraints, 0 tightened bounds, 0 added holes, 0 changed sides, 0 changed coefficients
 0 implications, 355288 cliques
presolved problem has 5938 variables (5938 bin, 0 int, 0 impl, 0 cont) and 145433 constraints
      8 constraints of type <knapsack>
 145425 constraints of type <setppc>
transformed objective value is always integral (scale: 1)
Presolving Time: 24.33
transformed 1/1 original solutions to the transformed problem space

 time | node  | left  |LP iter|LP it/n|mem/heur|mdpt |vars |cons |rows |cuts |sepa|confs|strbr|  dualbound   | primalbound  |  gap   | compl. 
p25.2s|     1 |     0 |     0 |     - | vbounds|   0 |5938 | 145k| 145k|   0 |  0 |  11 |   0 |-4.692780e+05 |-2.034400e+04 |2206.71%| unknown
 47.9s|     1 |     0 | 21498 |     - |  1143M |   0 |5938 | 145k| 145k|   0 |  0 |  16 |   0 |-4.692151e+04 |-2.034400e+04 | 130.64%| unknown
d 302s|     1 |     0 | 64790 |     - |farkasdi|   0 |5938 | 145k| 145k|   0 |  2 |  19 |   0 |-4.692151e+04 |-2.930000e+04 |  60.14%| unknown
d 571s|     1 |     0 | 93778 |     - |conflict|   0 |5938 | 145k| 145k|   0 |  2 |  19 |   0 |-4.692151e+04 |-2.951400e+04 |  58.98%| unknown
  580s|     1 |     0 | 93778 |     - |  1188M |   0 |5938 | 145k| 145k|   0 |  2 |  19 |   0 |-4.692151e+04 |-2.951400e+04 |  58.98%| unknown
i 580s|     1 |     0 | 93778 |     - |  oneopt|   0 |5938 | 145k| 145k|   0 |  2 |  19 |   0 |-4.692151e+04 |-2.957200e+04 |  58.67%| unknown
  694s|     1 |     2 | 93778 |     - |  1198M |   0 |5938 | 145k| 145k|   0 |  4 |  19 |  20 |-4.600926e+04 |-2.957200e+04 |  55.58%| unknown
d1474s|    16 |    15 |116734 |6349.1 |pscostdi|  13 |5938 | 145k| 145k|   0 |  1 |  19 | 202 |-4.370198e+04 |-3.171000e+04 |  37.82%| unknown
r1917s|    71 |    60 |148878 |1819.7 |shifting|  40 |5938 | 145k| 145k|   0 |  0 |  51 | 239 |-4.369515e+04 |-3.171500e+04 |  37.77%| unknown
i1917s|    71 |    43 |148878 |1819.7 |  oneopt|  40 |5938 | 145k| 145k|   0 |  1 |  51 | 239 |-4.369515e+04 |-3.222300e+04 |  35.60%| unknown
L4759s|   271 |    67 |258256 | 876.9 |crossove|  40 |5938 | 145k|   0 |   0 |  0 | 258 | 298 |-4.216174e+04 |-3.273600e+04 |  28.79%|   8.35%
Report 1
Time Elapsed: 6056.25
Estim. Tree Size   :      29693
Estimation Tree    : 437 nodes (372 visited, 218 inner, 154 leaves, 65 open), weight: 0.0100 completed 0.1026
Estimations        :      estim      value      trend resolution     smooth
  wbe              :      30675          -          -          -          -
  tree-profile     :         -1          -          -          -          -
  gap              :       1444    0.78301    0.00038          1       2718
  tree-weight      :      29693    0.01004    0.00007          1      29034
  leaf-frequency   :       1778    0.41263    0.00012          1       1524
  ssg              :       4442    0.84381   -0.00041          1       4248
  open-nodes       :        744   65.00000    0.13199          1        770
End of Report 1


SCIP Status        : solving was interrupted [time limit reached]
Solving Time (sec) : 7200.00
Solving Nodes      : 446
Primal Bound       : -3.27360000000000e+04 (16 solutions)
Dual Bound         : -4.18079003459935e+04
Gap                : 27.71 %

SCIP> display statistics

SCIP Status        : solving was interrupted [time limit reached]
Total Time         :    7200.54
  solving          :    7200.00
  presolving       :      24.33 (included in solving)
  reading          :       0.54
  copying          :       0.91 (5 #copies) (minimal 0.16, maximal 0.19, average 0.18)
Original Problem   :
  Problem name     : opm2-z10-s4
  Variables        : 6250 (6250 binary, 0 integer, 0 implicit integer, 0 continuous)
  Constraints      : 160633 initial, 160633 maximal
  Objective        : minimize, 6212 non-zeros (abs.min = 1, abs.max = 477)
Presolved Problem  :
  Problem name     : t_opm2-z10-s4
  Variables        : 5938 (5938 binary, 0 integer, 0 implicit integer, 0 continuous)
  Constraints      : 145433 initial, 146195 maximal
  Objective        : minimize, 5903 non-zeros (abs.min = 1, abs.max = 477)
  Nonzeros         : 338344 constraint, 710576 clique table
Presolvers         :   ExecTime  SetupTime  Calls  FixedVars   AggrVars   ChgTypes  ChgBounds   AddHoles    DelCons    AddCons   ChgSides   ChgCoefs
  boundshift       :       0.00       0.00      0          0          0          0          0          0          0          0          0          0
  convertinttobin  :       0.00       0.00      0          0          0          0          0          0          0          0          0          0
  domcol           :       0.07       0.00      1          0          0          0          0          0          0          0          0          0
  dualagg          :       0.00       0.00      0          0          0          0          0          0          0          0          0          0
  dualcomp         :       0.00       0.00      0          0          0          0          0          0          0          0          0          0
  dualinfer        :       0.00       0.00      0          0          0          0          0          0          0          0          0          0
  dualsparsify     :       2.11       0.00      1          0          0          0          0          0          0          0          0          0
  gateextraction   :       0.00       0.00      0          0          0          0          0          0          0          0          0          0
  implics          :       0.00       0.00      2          0          0          0          0          0          0          0          0          0
  inttobinary      :       0.00       0.00      0          0          0          0          0          0          0          0          0          0
  qpkktref         :       0.00       0.00      0          0          0          0          0          0          0          0          0          0
  redvub           :       0.00       0.00      0          0          0          0          0          0          0          0          0          0
  sparsify         :       0.10       0.00      1          0          0          0          0          0          0          0          0          0
  stuffing         :       0.00       0.00      0          0          0          0          0          0          0          0          0          0
  trivial          :       0.00       0.00      6          0          0          0          0          0          0          0          0          0
  tworowbnd        :       0.10       0.00      1          0          0          0          0          0          0          0          0          0
  dualfix          :       0.01       0.00      6        293          0          0          0          0          0          0          0          0
  genvbounds       :       0.00       0.00      0          0          0          0          0          0          0          0          0          0
  probing          :      18.21       0.00      1          0          0          0          0          0          0          0          0          0
  pseudoobj        :       0.00       0.00      4          0          0          0          0          0          0          0          0          0
  symmetry         :       0.18       0.00      1          0          0          0          0          0          0          0          0          0
  vbounds          :       0.02       0.00      1          0          0          0          0          0          0          0          0          0
  knapsack         :       1.60       0.00      5          0          0          0          0          0          0          0          0          0
  setppc           :       0.46       0.01      5         16          0          0          0          0        784          0          0          0
  linear           :       1.32       0.05      4          0          3          0          0          0      14416          0          0          0
  logicor          :       0.00       0.00      0          0          0          0          0          0          0          0          0          0
  benders          :       0.00       0.00      0          0          0          0          0          0          0          0          0          0
  components       :       0.04       0.00      1          0          0          0          0          0          0          0          0          0
  root node        :          -          -      -          0          -          -          0          -          -          -          -          -
Constraints        :     Number  MaxNumber  #Separate #Propagate    #EnfoLP    #EnfoRelax  #EnfoPS    #Check   #ResProp    Cutoffs    DomReds       Cuts    Applied      Conss   Children
  benderslp        :          0          0          0          0        317          0          0         30          0          0          0          0          0          0          0
  integral         :          0          0          0          0        317          0          0         30          0          0       1210          0          0        552        542
  knapsack         :          8          8          2      28505          0          0          0         25         16        148       1796          0          0          0          0
  setppc           :     145425+    145437          2      28606          0          0          0         17     210917         18      60508          0          0          0          0
  linear           :          0+        63          0       6447          0          0          0          0         10          1         49          0          0          0          0
  logicor          :          0+       688          2        821          0          0          0          0         35         22         26          0          0          0          0
  benders          :          0          0          0          0          0          0          0         18          0          0          0          0          0          0          0
  countsols        :          0          0          0          0          0          0          0         18          0          0          0          0          0          0          0
  components       :          0          0          0          0          0          0          0          0          0          0          0          0          0          0          0
Constraint Timings :  TotalTime  SetupTime   Separate  Propagate     EnfoLP     EnfoPS     EnfoRelax   Check    ResProp    SB-Prop
  benderslp        :       0.00       0.00       0.00       0.00       0.00       0.00       0.00       0.00       0.00       0.00
  integral         :     976.13       0.00       0.00       0.00     976.13       0.00       0.00       0.00       0.00       0.00
  knapsack         :       6.89       0.00       5.66       1.04       0.00       0.00       0.00       0.02       0.01       0.16
  setppc           :       7.64       0.01       0.09       5.80       0.00       0.00       0.00       0.07       0.15       1.52
  linear           :       0.16       0.05       0.00       0.07       0.00       0.00       0.00       0.00       0.00       0.04
  logicor          :       0.01       0.00       0.00       0.01       0.00       0.00       0.00       0.00       0.00       0.00
  benders          :       0.00       0.00       0.00       0.00       0.00       0.00       0.00       0.00       0.00       0.00
  countsols        :       0.00       0.00       0.00       0.00       0.00       0.00       0.00       0.00       0.00       0.00
  components       :       0.00       0.00       0.00       0.00       0.00       0.00       0.00       0.00       0.00       0.00
Propagators        : #Propagate   #ResProp    Cutoffs    DomReds
  dualfix          :          3          0          0          0
  genvbounds       :          0          0          0          0
  nlobbt           :          0          0          0          0
  obbt             :          0          0          0          0
  probing          :          0          0          0          0
  pseudoobj        :       2969          0          0          0
  redcost          :        670          0          0       1114
  rootredcost      :          5          0          0          0
  symmetry         :          0          0          0          0
  vbounds          :      21717          0          0          0
Propagator Timings :  TotalTime  SetupTime   Presolve  Propagate    ResProp    SB-Prop
  dualfix          :       0.01       0.00       0.01       0.00       0.00       0.00
  genvbounds       :       0.00       0.00       0.00       0.00       0.00       0.00
  nlobbt           :       0.00       0.00       0.00       0.00       0.00       0.00
  obbt             :       0.00       0.00       0.00       0.00       0.00       0.00
  probing          :      18.21       0.00      18.21       0.00       0.00       0.00
  pseudoobj        :       0.09       0.00       0.00       0.09       0.00       0.00
  redcost          :       0.15       0.00       0.00       0.14       0.00       0.01
  rootredcost      :       0.00       0.00       0.00       0.00       0.00       0.00
  symmetry         :       0.19       0.00       0.18       0.00       0.00       0.01
  vbounds          :       0.04       0.00       0.02       0.02       0.00       0.00
Conflict Analysis  :       Time      Calls    Success    DomReds  Conflicts   Literals    Reconvs ReconvLits   Dualrays   Nonzeros   LP Iters   (pool size: [10000,10000])
  propagation      :       0.21        186        177          -       1756      494.3          0        0.0          -          -          -
  infeasible LP    :       0.00          0          0          -          0        0.0          0        0.0          0        0.0          0
  bound exceed. LP :      10.75         77         76          -       1460      380.1          0        0.0         63      777.6       1460
  strong branching :       0.00          0          0          -          0        0.0          0        0.0          -          -          0
  pseudo solution  :       0.00          0          0          -          0        0.0          0        0.0          -          -          -
  applied globally :       0.11          -          -          0        715      247.9          -          -         63          -          -
  applied locally  :          -          -          -          0          0        0.0          -          -          0          -          -
Separators         :   ExecTime  SetupTime      Calls    Cutoffs    DomReds       Cuts    Applied      Conss
  cut pool         :       0.00                     0          -          -          0          -          -    (maximal pool size: 0)
  aggregation      :      47.64       0.00         11          0          0          0          0          0
  cgmip            :       0.00       0.00          0          0          0          0          0          0
  clique           :       4.01       0.00          2          0          0          0          0          0
  closecuts        :       0.00       0.00          0          0          0          0          0          0
  cmir             :       0.00       0.00          0          0          0          0          0          0
  convexproj       :       0.00       0.00          0          0          0          0          0          0
  disjunctive      :       0.00       0.00          0          0          0          0          0          0
  eccuts           :       0.00       0.00          0          0          0          0          0          0
  flowcover        :       0.00       0.00          0          0          0          0          0          0
  gauge            :       0.00       0.00          0          0          0          0          0          0
  gomory           :     400.97       0.00         11          0          0          0          0          0
  impliedbounds    :       0.10       0.00         11          0          0          0          0          0
  intobj           :       0.00       0.00          0          0          0          0          0          0
  mcf              :       0.08       0.00          1          0          0          0          0          0
  oddcycle         :       0.00       0.00          0          0          0          0          0          0
  rapidlearning    :       0.02       0.00          0          0          0          0          0          0
  strongcg         :      29.39       0.00          2          0          0          0          0          0
  zerohalf         :      13.11       0.00         11          0          0          0          0          0
Pricers            :   ExecTime  SetupTime      Calls       Vars
  problem variables:       0.00          -          0          0
Branching Rules    :   ExecTime  SetupTime   BranchLP  BranchExt   BranchPS    Cutoffs    DomReds       Cuts      Conss   Children
  allfullstrong    :       0.00       0.00          0          0          0          0          0          0          0          0
  cloud            :       0.00       0.00          0          0          0          0          0          0          0          0
  distribution     :       0.00       0.00          0          0          0          0          0          0          0          0
  fullstrong       :       0.00       0.00          0          0          0          0          0          0          0          0
  inference        :       0.00       0.00          0          0          0          0          0          0          0          0
  leastinf         :       0.00       0.00          0          0          0          0          0          0          0          0
  lookahead        :       0.00       0.00          0          0          0          0          0          0          0          0
  mostinf          :       0.00       0.00          0          0          0          0          0          0          0          0
  multaggr         :       0.00       0.00          0          0          0          0          0          0          0          0
  nodereopt        :       0.00       0.00          0          0          0          0          0          0          0          0
  pscost           :       0.00       0.00          0          0          0          0          0          0          0          0
  random           :       0.00       0.00          0          0          0          0          0          0          0          0
  relpscost        :     976.12       0.00        317          0          0          0       1210          0        556        542
  vanillafullstrong:       0.00       0.00          0          0          0          0          0          0          0          0
Primal Heuristics  :   ExecTime  SetupTime      Calls      Found       Best
  LP solutions     :       0.00          -          -          0          0
  relax solutions  :       0.00          -          -          0          0
  pseudo solutions :       0.00          -          -          0          0
  strong branching :       0.00          -          -          0          0
  actconsdiving    :       0.00       0.00          0          0          0
  adaptivediving   :      14.61       0.00          1          0          0
  alns             :       2.12       0.00          5          0          0
  bound            :       0.00       0.00          0          0          0
  clique           :       0.21       0.00          1          0          0
  coefdiving       :       0.00       0.00          0          0          0
  completesol      :       0.00       0.00          0          0          0
  conflictdiving   :      71.96       0.00          1          1          1
  crossover        :       0.92       0.00          1          1          1
  dins             :       0.00       0.00          0          0          0
  distributiondivin:       2.58       0.00          1          0          0
  dualval          :       0.00       0.00          0          0          0
  farkasdiving     :     207.42       0.00          1          1          1
  feaspump         :     205.16       0.00          1          0          0
  fixandinfer      :       0.00       0.00          0          0          0
  fracdiving       :      21.18       0.00          1          0          0
  gins             :       0.03       0.00          0          0          0
  guideddiving     :       0.00       0.00          0          0          0
  indicator        :       0.00       0.00          0          0          0
  intdiving        :       0.00       0.00          0          0          0
  intshifting      :       0.00       0.00          0          0          0
  linesearchdiving :      62.99       0.00          1          0          0
  localbranching   :       0.00       0.00          0          0          0
  locks            :       0.12       0.00          1          0          0
  lpface           :       0.00       0.00          0          0          0
  mpec             :       0.00       0.00          0          0          0
  multistart       :       0.00       0.00          0          0          0
  mutation         :       0.00       0.00          0          0          0
  nlpdiving        :       0.00       0.00          0          0          0
  objpscostdiving  :     375.31       0.00          1          0          0
  octane           :       0.00       0.00          0          0          0
  ofins            :       0.00       0.00          0          0          0
  oneopt           :       0.08       0.00          5          2          2
  padm             :       0.00       0.00          0          0          0
  proximity        :       0.00       0.00          0          0          0
  pscostdiving     :      38.53       0.00          1          1          1
  randrounding     :       0.22       0.00          9          1          0
  rens             :       0.01       0.00          0          0          0
  reoptsols        :       0.00       0.00          0          0          0
  repair           :       0.00       0.00          0          0          0
  rins             :       0.00       0.00          0          0          0
  rootsoldiving    :     112.18       0.00          1          1          0
  rounding         :      66.61       0.00        198          0          0
  shiftandpropagate:       0.00       0.00          0          0          0
  shifting         :      12.79       0.00         32          1          1
  simplerounding   :       0.01       0.00        484          0          0
  subnlp           :       0.00       0.00          0          0          0
  trivial          :       0.01       0.00          2          1          1
  trivialnegation  :       0.00       0.00          0          0          0
  trustregion      :       0.00       0.00          0          0          0
  trysol           :       0.00       0.00          0          0          0
  twoopt           :       0.00       0.00          0          0          0
  undercover       :       0.00       0.00          0          0          0
  vbounds          :       0.78       0.00          1          1          1
  veclendiving     :       1.64       0.00          1          0          0
  zeroobj          :       0.00       0.00          0          0          0
  zirounding       :       4.12       0.00        270          5          0
  other solutions  :          -          -          -          0          -
Diving (single)    :      Calls      Nodes   LP Iters Backtracks  Conflicts   MinDepth   MaxDepth   AvgDepth  RoundSols  NLeafSols  MinSolDpt  MaxSolDpt  AvgSolDpt
  actconsdiving    :          0          -          -          -          -          -          -          -          -          -          -          -          -
  coefdiving       :          0          -          -          -          -          -          -          -          -          -          -          -          -
  conflictdiving   :          1        218      12736          0          0        219        219      219.0          0          1        219        219      219.0
  distributiondivin:          1        627        510          1         11        635        635      635.0          0          -          -          -          -
  farkasdiving     :          1        437      43292          1         80        437        437      437.0          0          1        437        437      437.0
  fracdiving       :          1        793       4544          1         34        801        801      801.0          0          -          -          -          -
  guideddiving     :          0          -          -          -          -          -          -          -          -          -          -          -          -
  linesearchdiving :          1        269       4990        125       1017        154        154      154.0          0          -          -          -          -
  pscostdiving     :          1        325       8031          0          0        339        339      339.0          0          1        339        339      339.0
  veclendiving     :          1         11        322          2         36         17         17       17.0          0          -          -          -          -
Diving (adaptive)  :      Calls      Nodes   LP Iters Backtracks  Conflicts   MinDepth   MaxDepth   AvgDepth  RoundSols  NLeafSols  MinSolDpt  MaxSolDpt  AvgSolDpt
  actconsdiving    :          0          -          -          -          -          -          -          -          -          -          -          -          -
  coefdiving       :          0          -          -          -          -          -          -          -          -          -          -          -          -
  conflictdiving   :          0          -          -          -          -          -          -          -          -          -          -          -          -
  distributiondivin:          0          -          -          -          -          -          -          -          -          -          -          -          -
  farkasdiving     :          0          -          -          -          -          -          -          -          -          -          -          -          -
  fracdiving       :          0          -          -          -          -          -          -          -          -          -          -          -          -
  guideddiving     :          0          -          -          -          -          -          -          -          -          -          -          -          -
  linesearchdiving :          0          -          -          -          -          -          -          -          -          -          -          -          -
  pscostdiving     :          1          6       3652          1         34         19         19       19.0          0          -          -          -          -
  veclendiving     :          0          -          -          -          -          -          -          -          -          -          -          -          -
Neighborhoods      :      Calls  SetupTime  SolveTime SolveNodes       Sols       Best       Exp3  EpsGreedy        UCB TgtFixRate  Opt  Inf Node Stal  Sol  Usr Othr Actv
  rens             :          1       0.00       0.00          0          0          0    0.00000   -1.00000    1.00000      0.900    0    0    0    0    0    0    1    1
  rins             :          1       0.31       0.23          0          0          0    0.00000   -1.00000    1.00000      0.700    0    1    0    0    0    0    0    1
  mutation         :          0       0.00       0.00          0          0          0    0.00000   -1.00000    1.00000      0.900    0    0    0    0    0    0    0    1
  localbranching   :          1       0.28       0.24          1          0          0    0.00000   -1.00000    1.00000      0.700    0    1    0    0    0    0    0    1
  crossover        :          1       0.27       0.20          1          0          0    0.00000   -1.00000    1.00000      0.700    0    1    0    0    0    0    0    1
  proximity        :          0       0.00       0.00          0          0          0    0.00000   -1.00000    1.00000      0.900    0    0    0    0    0    0    0    1
  zeroobjective    :          0       0.00       0.00          0          0          0    0.00000   -1.00000    1.00000      0.900    0    0    0    0    0    0    0    1
  dins             :          1       0.26       0.21          0          0          0    0.00000   -1.00000    1.00000      0.700    0    1    0    0    0    0    0    1
  trustregion      :          0       0.00       0.00          0          0          0    0.00000   -1.00000    1.00000      0.900    0    0    0    0    0    0    0    0
LP                 :       Time      Calls Iterations  Iter/call   Iter/sec  Time-0-It Calls-0-It    ItLimit
  primal LP        :       0.00          0          0       0.00          -       0.00          0
  dual LP          :    4489.97        649     179901     378.74      40.07      16.79        174
  lex dual LP      :       0.00          0          0       0.00          -
  barrier LP       :       0.00          0          0       0.00          -       0.00          0
  resolve instable :       0.00          0          0       0.00          -
  diving/probing LP:    1108.00        667     125497     188.15     113.26
  strong branching :     955.61        377     205256     544.45     214.79          -          -        318
    (at root node) :          -         20      14538     726.90          -
  conflict analysis:       9.54        146       1460      10.00     153.04
B&B Tree           :
  number of runs   :          1
  nodes            :        446 (271 internal, 175 leaves)
  feasible leaves  :          0
  infeas. leaves   :         16
  objective leaves :        158
  nodes (total)    :        446 (271 internal, 175 leaves)
  nodes left       :         77
  max depth        :         40
  max depth (total):         40
  backtracks       :         86 (19.3%)
  early backtracks :          0 (0.0%)
  nodes exc. ref.  :          0 (0.0%)
  delayed cutoffs  :          0
  repropagations   :         38 (32 domain reductions, 0 cutoffs)
  avg switch length:       2.87
  switching time   :       0.58
Estim. Tree Size   :        932
Estimation Tree    : 543 nodes (466 visited, 271 inner, 195 leaves, 77 open), weight: 0.0110 completed 0.1055
Estimations        :      estim      value      trend resolution     smooth
  wbe              :      35332          -          -          -          -
  tree-profile     :         -1          -          -          -          -
  gap              :        932    0.78301    0.00000          1        936
  tree-weight      :        932    0.01104    0.00000          1        931
  leaf-frequency   :       2321    0.41738    0.00009          1       2583
  ssg              :        932    0.83976   -0.00000          1      23707
  open-nodes       :        932   77.00000    0.04365          1        951
Root Node          :
  First LP value   : -4.69215078403987e+04
  First LP Iters   :      21498 (967.94 Iter/sec)
  First LP Time    :      22.21
  Final Dual Bound : -4.60092641316505e+04
  Final Root Iters :      21498
  Root LP Estimate : -2.41185844083850e+04
Solution           :
  Solutions found  :         16 (9 improvements)
  First Solution   : +0.00000000000000e+00   (in run 1, after 0 nodes, 0.17 seconds, depth 0, found by <trivial>)
  Gap First Sol.   :   infinite
  Gap Last Sol.    :      28.79 %
  Primal Bound     : -3.27360000000000e+04   (in run 1, after 271 nodes, 4758.52 seconds, depth 28, found by <crossover>)
  Dual Bound       : -4.18079003459935e+04
  Gap              :      27.71 %
Integrals          :      Total       Avg%
  primal-dual      :  194353.57      26.99
  primal-ref       :          -          - (not evaluated)
  dual-ref         :          -          - (not evaluated)

SCIP> checksol

check best solution
solution is feasible in original problem
Violation          :    absolute    relative
  bounds           : 0.00000e+00 0.00000e+00
  integrality      : 0.00000e+00           -
  LP rows          : 0.00000e+00 0.00000e+00
  constraints      : 0.00000e+00 0.00000e+00

SCIP> write sol /local/tmp/bzfhende-tmpdir/bzfhende.instancegroups_opm2.53_opm2-zz10-s4.scip.M620v2.periodic_report.sol

written solution information to file </local/tmp/bzfhende-tmpdir/bzfhende.instancegroups_opm2.53_opm2-z10-s4.scip.M620v2.periodic_report.sol>

SCIP> quit

Read MPS: 1
MIP has 6250 vars and 160633 constraints
Read SOL: 1
Objective value computed by solver: -32736

Integrality tolerance: 1/10000
Linear tolerance: 1/10000
Objective tolerance: 1/10000

Check SOL: Integrality 1 Constraints 1 Objective 1
Maximum violations: Integrality 0 Constraints 0 Objective 0
@04 1583645280
-----------------------------
So 8. Mär 06:28:00 CET 2020
-----------------------------

=ready=
